 $CONTRL 
    SCFTYP=RHF 
    RUNTYP=ENERGY 
    cityp=guga
    UNITS=BOHR 
    ISPHER=-1 
    nprint=3
 $END
 $SYSTEM 
    TIMLIM=1000000
    mwords=100 
 $END
 $SCF dirscf=.false. $END
 $CIDRT
    iexcit=2
    ndoc=1
    nval=29
    group=d2h
 $END
 $CIINP
    npflg(2)=2
 $END
 $GUGDM
    nflgdm=1
 $END
 $DATA
Hydrogen molecule at equlibium in cc-pVTZ basis
dnh      2
 
H     1.0      0.000000    0.000000   0.724368
S   3
  1     33.8700000              0.0060680        
  2      5.0950000              0.0453080        
  3      1.1590000              0.2028220        
S   1
  1      0.3258000              1.0000000        
S   1
  1      0.1027000              1.0000000        
P   1
  1      1.4070000              1.0000000        
P   1
  1      0.3880000              1.0000000        
D   1
  1      1.0570000              1.0000000  

 $END
