 $CONTRL 
    SCFTYP=RHF 
    RUNTYP=ENERGY 
    cityp=guga
    UNITS=BOHR 
    ISPHER=-1 
    nprint=3
 $END
 $SYSTEM 
    TIMLIM=1000000
    mwords=100 
 $END
 $SCF dirscf=.false. $END
 $CIDRT
    iexcit=2
    ndoc=5
    nval=20
    group=c2v
 $END
 $CIINP
    npflg(2)=2
 $END
 $GUGDM
    nflgdm=1
 $END
 $DATA
Water...RHF/3-21G...exp.geom...R(OH)=0.95781,A(HOH)=104.4776
Cnv      2   

OXYGEN     8.0 
S   8
  1  11720.0000000              0.0007100        
  2   1759.0000000              0.0054700        
  3    400.8000000              0.0278370        
  4    113.7000000              0.1048000        
  5     37.0300000              0.2830620        
  6     13.2700000              0.4487190        
  7      5.0250000              0.2709520        
  8      1.0130000              0.0154580        
S   8
  1  11720.0000000             -0.0001600        
  2   1759.0000000             -0.0012630        
  3    400.8000000             -0.0062670        
  4    113.7000000             -0.0257160        
  5     37.0300000             -0.0709240        
  6     13.2700000             -0.1654110        
  7      5.0250000             -0.1169550        
  8      1.0130000              0.5573680        
S   1
  1      0.3023000              1.0000000        
P   3
  1     17.7000000              0.0430180        
  2      3.8540000              0.2289130        
  3      1.0460000              0.5087280        
P   1
  1      0.2753000              1.0000000        
D   1
  1      1.1850000              1.0000000    

HYDROGEN   1.0   0.0     0.7572157    0.5865358
S   3
  1     13.0100000              0.0196850        
  2      1.9620000              0.1379770        
  3      0.4446000              0.4781480        
S   1
  1      0.1220000              1.0000000        
P   1
  1      0.7270000              1.0000000  

 $END
